c "random instance"
p edges 150 1137
e 1 10
e 1 13
e 1 16
e 1 17
e 1 24
e 1 26
e 1 37
e 1 42
e 1 52
e 1 57
e 1 61
e 1 65
e 1 75
e 1 78
e 1 89
e 1 97
e 1 122
e 1 129
e 1 130
e 1 131
e 1 139
e 1 149
e 2 16
e 2 17
e 2 23
e 2 43
e 2 50
e 2 69
e 2 75
e 2 82
e 2 96
e 2 103
e 2 148
e 2 149
e 3 10
e 3 27
e 3 38
e 3 51
e 3 55
e 3 60
e 3 63
e 3 66
e 3 92
e 3 95
e 3 97
e 3 104
e 3 105
e 3 136
e 4 8
e 4 12
e 4 15
e 4 50
e 4 56
e 4 62
e 4 69
e 4 93
e 4 127
e 4 135
e 4 143
e 5 14
e 5 18
e 5 22
e 5 28
e 5 55
e 5 75
e 5 77
e 5 82
e 5 83
e 5 85
e 5 88
e 5 94
e 5 98
e 5 108
e 5 113
e 5 122
e 5 137
e 5 147
e 6 16
e 6 17
e 6 26
e 6 28
e 6 32
e 6 39
e 6 46
e 6 61
e 6 77
e 6 94
e 6 122
e 6 143
e 6 144
e 6 148
e 6 149
e 7 27
e 7 30
e 7 36
e 7 42
e 7 48
e 7 88
e 7 93
e 7 107
e 7 115
e 7 124
e 7 130
e 7 134
e 7 136
e 8 12
e 8 30
e 8 41
e 8 47
e 8 48
e 8 56
e 8 81
e 8 94
e 8 97
e 8 125
e 8 131
e 8 141
e 8 150
e 9 30
e 9 37
e 9 42
e 9 52
e 9 74
e 9 85
e 9 86
e 9 99
e 9 104
e 9 111
e 9 112
e 9 122
e 10 22
e 10 23
e 10 42
e 10 45
e 10 48
e 10 69
e 10 75
e 10 78
e 10 88
e 10 90
e 10 95
e 10 106
e 10 109
e 10 113
e 10 119
e 10 124
e 10 127
e 10 140
e 11 18
e 11 20
e 11 23
e 11 33
e 11 35
e 11 37
e 11 43
e 11 45
e 11 50
e 11 58
e 11 80
e 11 88
e 11 91
e 11 94
e 11 101
e 11 111
e 11 113
e 11 116
e 11 127
e 11 129
e 12 15
e 12 17
e 12 28
e 12 33
e 12 71
e 12 74
e 12 76
e 12 82
e 12 85
e 12 86
e 12 88
e 12 89
e 12 94
e 12 105
e 12 117
e 12 120
e 12 132
e 12 133
e 12 144
e 12 148
e 12 150
e 13 23
e 13 36
e 13 46
e 13 59
e 13 60
e 13 66
e 13 76
e 13 83
e 13 93
e 13 96
e 13 98
e 13 122
e 13 125
e 13 150
e 14 16
e 14 20
e 14 29
e 14 35
e 14 40
e 14 53
e 14 54
e 14 73
e 14 87
e 14 89
e 14 92
e 14 97
e 14 103
e 14 104
e 14 106
e 14 111
e 14 115
e 14 125
e 14 129
e 14 140
e 14 143
e 15 28
e 15 32
e 15 33
e 15 39
e 15 48
e 15 50
e 15 59
e 15 63
e 15 67
e 15 79
e 15 81
e 15 83
e 15 149
e 16 25
e 16 41
e 16 44
e 16 50
e 16 51
e 16 62
e 16 77
e 16 83
e 16 85
e 16 95
e 16 113
e 16 115
e 16 122
e 16 143
e 16 144
e 16 146
e 17 23
e 17 25
e 17 29
e 17 41
e 17 51
e 17 52
e 17 54
e 17 78
e 17 89
e 17 124
e 17 125
e 17 143
e 18 33
e 18 40
e 18 55
e 18 62
e 18 75
e 18 77
e 18 81
e 18 100
e 18 102
e 18 105
e 18 122
e 18 129
e 18 137
e 18 147
e 19 20
e 19 56
e 19 83
e 19 88
e 19 97
e 19 103
e 19 104
e 19 106
e 19 147
e 20 34
e 20 36
e 20 59
e 20 67
e 20 86
e 20 87
e 20 100
e 20 104
e 20 113
e 20 119
e 20 120
e 20 124
e 21 24
e 21 26
e 21 43
e 21 60
e 21 79
e 21 88
e 21 89
e 21 100
e 21 123
e 21 125
e 22 28
e 22 32
e 22 36
e 22 37
e 22 43
e 22 45
e 22 51
e 22 75
e 22 78
e 22 95
e 22 109
e 22 111
e 22 122
e 22 123
e 22 132
e 22 142
e 23 34
e 23 36
e 23 41
e 23 46
e 23 53
e 23 57
e 23 58
e 23 63
e 23 75
e 23 80
e 23 88
e 23 98
e 23 116
e 23 142
e 24 38
e 24 51
e 24 52
e 24 61
e 24 64
e 24 90
e 24 126
e 24 130
e 24 134
e 25 29
e 25 32
e 25 35
e 25 39
e 25 45
e 25 53
e 25 64
e 25 95
e 25 110
e 25 122
e 25 127
e 25 134
e 25 137
e 25 141
e 26 27
e 26 28
e 26 31
e 26 39
e 26 61
e 26 69
e 26 72
e 26 91
e 26 98
e 26 102
e 26 125
e 26 133
e 26 146
e 27 29
e 27 36
e 27 42
e 27 45
e 27 61
e 27 96
e 27 97
e 27 113
e 27 114
e 27 119
e 27 136
e 28 45
e 28 73
e 28 74
e 28 85
e 28 91
e 28 110
e 28 117
e 28 118
e 28 134
e 29 31
e 29 41
e 29 47
e 29 52
e 29 53
e 29 69
e 29 72
e 29 75
e 29 79
e 29 96
e 29 99
e 29 110
e 29 125
e 29 129
e 29 147
e 29 150
e 30 32
e 30 34
e 30 49
e 30 56
e 30 57
e 30 68
e 30 72
e 30 99
e 30 116
e 30 123
e 30 135
e 30 137
e 31 39
e 31 43
e 31 55
e 31 67
e 31 71
e 31 75
e 31 95
e 31 103
e 31 107
e 31 109
e 31 127
e 31 147
e 31 150
e 32 39
e 32 44
e 32 55
e 32 58
e 32 84
e 32 97
e 32 102
e 32 117
e 32 121
e 32 131
e 32 138
e 32 146
e 32 147
e 33 34
e 33 35
e 33 55
e 33 65
e 33 67
e 33 77
e 33 93
e 33 97
e 33 99
e 33 101
e 33 111
e 33 112
e 33 132
e 33 134
e 33 135
e 33 141
e 34 81
e 34 101
e 34 108
e 34 120
e 34 123
e 34 131
e 34 141
e 35 59
e 35 65
e 35 76
e 35 86
e 35 87
e 35 100
e 35 102
e 35 109
e 35 126
e 35 134
e 35 148
e 35 150
e 36 44
e 36 52
e 36 53
e 36 73
e 36 77
e 36 83
e 36 89
e 36 91
e 36 112
e 36 126
e 36 128
e 36 130
e 36 139
e 36 147
e 37 42
e 37 45
e 37 68
e 37 76
e 37 79
e 37 84
e 37 87
e 37 108
e 37 114
e 37 135
e 37 144
e 37 146
e 38 46
e 38 49
e 38 60
e 38 64
e 38 65
e 38 87
e 38 88
e 38 91
e 38 94
e 38 98
e 38 99
e 38 103
e 38 111
e 38 112
e 38 134
e 38 135
e 39 48
e 39 63
e 39 69
e 39 80
e 39 84
e 39 93
e 39 100
e 39 108
e 39 115
e 39 119
e 39 126
e 39 132
e 40 42
e 40 44
e 40 45
e 40 47
e 40 50
e 40 88
e 40 98
e 40 111
e 40 124
e 40 131
e 41 54
e 41 70
e 41 72
e 41 77
e 41 85
e 41 87
e 41 96
e 41 98
e 41 100
e 41 141
e 42 52
e 42 62
e 42 83
e 42 87
e 42 96
e 42 97
e 42 102
e 42 106
e 42 122
e 42 138
e 42 139
e 43 46
e 43 62
e 43 72
e 43 94
e 43 96
e 43 114
e 43 117
e 43 141
e 44 48
e 44 55
e 44 63
e 44 64
e 44 72
e 44 110
e 44 130
e 44 135
e 44 138
e 44 144
e 45 47
e 45 48
e 45 52
e 45 54
e 45 68
e 45 79
e 45 81
e 45 83
e 45 88
e 45 93
e 45 105
e 45 109
e 45 112
e 45 130
e 45 137
e 46 48
e 46 50
e 46 54
e 46 66
e 46 69
e 46 70
e 46 79
e 46 98
e 46 109
e 46 110
e 46 117
e 46 122
e 46 123
e 46 138
e 46 147
e 47 60
e 47 68
e 47 77
e 47 88
e 47 91
e 47 95
e 47 110
e 47 114
e 47 124
e 47 139
e 47 150
e 48 53
e 48 60
e 48 61
e 48 97
e 48 103
e 48 124
e 48 137
e 49 53
e 49 65
e 49 70
e 49 89
e 49 100
e 49 101
e 49 102
e 49 110
e 49 130
e 49 135
e 49 139
e 49 144
e 49 146
e 50 54
e 50 59
e 50 66
e 50 83
e 50 90
e 50 103
e 50 117
e 50 120
e 51 75
e 51 79
e 51 92
e 51 100
e 51 106
e 51 110
e 51 113
e 51 132
e 51 138
e 52 63
e 52 65
e 52 77
e 52 80
e 52 82
e 52 83
e 52 85
e 52 88
e 52 89
e 52 91
e 52 96
e 52 100
e 52 101
e 52 109
e 52 110
e 52 120
e 52 133
e 52 146
e 53 56
e 53 58
e 53 60
e 53 67
e 53 69
e 53 78
e 53 83
e 53 90
e 53 95
e 53 99
e 53 113
e 53 116
e 53 125
e 53 126
e 53 127
e 53 131
e 53 135
e 53 146
e 53 149
e 54 55
e 54 71
e 54 79
e 54 85
e 54 96
e 54 101
e 54 112
e 54 118
e 55 56
e 55 57
e 55 59
e 55 67
e 55 72
e 55 73
e 55 89
e 55 95
e 55 96
e 55 98
e 55 124
e 55 129
e 55 144
e 56 60
e 56 66
e 56 69
e 56 71
e 56 98
e 56 108
e 56 112
e 56 119
e 56 123
e 56 126
e 56 135
e 56 145
e 57 63
e 57 71
e 57 82
e 57 124
e 57 125
e 57 129
e 57 137
e 58 60
e 58 78
e 58 85
e 58 116
e 58 133
e 58 139
e 58 147
e 58 148
e 59 91
e 59 99
e 59 110
e 59 117
e 59 124
e 59 140
e 60 71
e 60 79
e 60 84
e 60 112
e 60 124
e 60 149
e 61 69
e 61 89
e 61 94
e 61 95
e 61 103
e 61 121
e 61 124
e 61 132
e 61 140
e 62 70
e 62 72
e 62 80
e 62 97
e 62 111
e 62 128
e 62 142
e 63 100
e 63 107
e 63 115
e 63 117
e 63 124
e 63 133
e 63 143
e 63 148
e 64 74
e 64 84
e 64 86
e 64 89
e 64 112
e 64 125
e 64 148
e 65 69
e 65 70
e 65 83
e 65 110
e 65 119
e 65 127
e 65 136
e 65 142
e 66 98
e 66 106
e 66 128
e 67 94
e 67 103
e 67 107
e 67 113
e 68 86
e 68 90
e 68 102
e 68 107
e 68 108
e 68 111
e 68 113
e 68 117
e 68 135
e 68 137
e 68 145
e 69 90
e 69 92
e 69 95
e 69 121
e 69 128
e 69 129
e 69 137
e 69 138
e 69 141
e 69 144
e 70 77
e 70 98
e 70 100
e 70 103
e 70 104
e 70 109
e 70 116
e 70 140
e 70 145
e 70 148
e 71 89
e 71 130
e 71 138
e 71 150
e 72 73
e 72 98
e 72 99
e 72 100
e 72 108
e 72 122
e 72 128
e 72 140
e 72 142
e 72 148
e 73 84
e 73 88
e 73 96
e 73 114
e 74 80
e 74 84
e 74 89
e 74 90
e 74 107
e 74 108
e 74 115
e 74 118
e 74 122
e 74 129
e 75 83
e 75 100
e 75 118
e 75 119
e 75 148
e 76 100
e 76 102
e 76 105
e 76 113
e 76 114
e 76 117
e 76 119
e 76 129
e 76 130
e 76 131
e 76 139
e 76 149
e 77 113
e 77 115
e 78 83
e 78 93
e 78 108
e 78 115
e 78 123
e 78 138
e 78 144
e 79 82
e 79 90
e 79 99
e 79 101
e 79 119
e 79 129
e 79 130
e 80 88
e 80 89
e 80 108
e 80 119
e 80 137
e 80 139
e 80 147
e 81 88
e 81 110
e 81 111
e 81 119
e 81 122
e 81 134
e 81 144
e 81 148
e 82 84
e 82 100
e 82 107
e 82 111
e 82 122
e 82 135
e 83 100
e 83 101
e 83 104
e 83 113
e 83 117
e 83 121
e 83 140
e 84 100
e 84 105
e 84 115
e 84 116
e 84 125
e 84 127
e 84 133
e 84 135
e 84 138
e 84 141
e 85 88
e 85 107
e 85 133
e 85 140
e 86 94
e 86 97
e 86 103
e 86 109
e 86 116
e 86 118
e 86 136
e 87 105
e 87 136
e 87 137
e 87 150
e 88 101
e 88 107
e 88 125
e 89 93
e 89 101
e 89 110
e 89 123
e 89 126
e 90 92
e 90 94
e 90 95
e 90 114
e 90 115
e 90 119
e 90 127
e 90 132
e 90 144
e 91 116
e 91 123
e 91 124
e 91 130
e 91 135
e 91 138
e 91 139
e 91 141
e 91 143
e 92 94
e 92 125
e 92 142
e 93 116
e 93 132
e 93 133
e 93 140
e 93 142
e 94 122
e 94 128
e 94 130
e 94 131
e 94 144
e 95 104
e 95 108
e 95 121
e 95 131
e 96 114
e 96 123
e 96 128
e 96 137
e 96 144
e 97 102
e 97 104
e 97 119
e 97 125
e 97 127
e 97 136
e 97 139
e 98 101
e 98 114
e 98 115
e 98 127
e 98 129
e 98 138
e 99 128
e 99 130
e 99 144
e 99 147
e 99 148
e 100 111
e 100 123
e 100 124
e 100 141
e 100 145
e 101 121
e 101 142
e 101 149
e 102 110
e 102 111
e 102 116
e 102 126
e 102 135
e 102 140
e 103 117
e 103 118
e 103 125
e 103 137
e 103 146
e 104 125
e 104 133
e 104 138
e 105 111
e 105 120
e 105 121
e 106 109
e 106 120
e 107 118
e 107 129
e 107 136
e 108 128
e 109 111
e 109 120
e 109 132
e 109 135
e 109 137
e 110 113
e 110 128
e 110 135
e 110 142
e 111 130
e 111 138
e 112 118
e 112 123
e 112 131
e 112 136
e 113 131
e 113 133
e 113 137
e 113 141
e 113 146
e 114 131
e 114 149
e 115 127
e 115 143
e 115 148
e 115 150
e 116 128
e 116 138
e 116 139
e 116 143
e 116 146
e 116 150
e 118 122
e 119 125
e 119 147
e 119 149
e 120 121
e 120 132
e 120 146
e 121 125
e 121 138
e 121 147
e 122 129
e 122 146
e 123 125
e 123 128
e 123 142
e 123 146
e 124 139
e 124 142
e 124 150
e 125 127
e 125 128
e 125 138
e 125 143
e 126 129
e 126 134
e 126 135
e 126 136
e 126 139
e 126 144
e 126 146
e 127 149
e 128 135
e 129 133
e 129 135
e 129 149
e 130 136
e 130 141
e 130 144
e 131 132
e 131 148
e 132 143
e 134 147
e 134 150
e 135 139
e 137 143
e 137 149
e 138 139
e 138 142
e 138 150
e 139 143
e 139 149
e 141 143
e 143 144
e 145 148
